

******************************************************************************
This program contains Ipopt, a library for large-scale nonlinear optimization.
 Ipopt is released as open source code under the Eclipse Public License (EPL).
         For more information visit https://github.com/coin-or/Ipopt
******************************************************************************

This is Ipopt version 3.14.11, running with linear solver MUMPS 5.5.1.

Number of nonzeros in equality constraint Jacobian...:        6
Number of nonzeros in inequality constraint Jacobian.:        0
Number of nonzeros in Lagrangian Hessian.............:        3

Total number of variables............................:        3
                     variables with only lower bounds:        0
                variables with lower and upper bounds:        0
                     variables with only upper bounds:        0
Total number of equality constraints.................:        2
Total number of inequality constraints...............:        0
        inequality constraints with only lower bounds:        0
   inequality constraints with lower and upper bounds:        0
        inequality constraints with only upper bounds:        0

iter    objective    inf_pr   inf_du lg(mu)  ||d||  lg(rg) alpha_du alpha_pr  ls
   0 -1.8608932e+01 1.77e-04 1.00e+01  -1.0 0.00e+00    -  0.00e+00 0.00e+00   0
   1 -2.8591083e+04 3.31e+03 2.99e+03  -1.0 9.35e+01   0.0 1.00e+00 5.00e-01f  2
   2 -1.2743097e+03 8.74e+02 9.47e+02  -1.0 2.19e+01   0.4 1.00e+00 1.00e+00h  1
   3 -1.1987539e+01 2.41e+02 2.54e+02  -1.0 1.21e+01   0.9 1.00e+00 1.00e+00h  1
   4 -5.1690457e+00 5.48e+01 4.23e+01  -1.0 5.67e+00    -  1.00e+00 1.00e+00h  1
   5 -3.7307788e+00 9.55e+00 9.67e+00  -1.0 2.40e+00    -  1.00e+00 1.00e+00h  1
   6 -3.7078173e+00 9.18e-01 1.39e+00  -1.0 7.80e-01    -  1.00e+00 1.00e+00h  1
   7 -3.7089384e+00 5.92e-02 4.93e-02  -1.0 1.81e-01    -  1.00e+00 1.00e+00h  1
   8 -3.7047730e+00 6.73e-05 1.03e-04  -2.5 6.35e-03    -  1.00e+00 1.00e+00h  1
   9 -3.7047682e+00 1.03e-09 2.17e-09  -5.7 2.60e-05    -  1.00e+00 1.00e+00h  1

Number of Iterations....: 9

                                   (scaled)                 (unscaled)
Objective...............:  -3.7047681836394495e+00   -3.7047681836394495e+00
Dual infeasibility......:   2.1692334595257989e-09    2.1692334595257989e-09
Constraint violation....:   1.0265921446261927e-09    1.0265921446261927e-09
Variable bound violation:   0.0000000000000000e+00    0.0000000000000000e+00
Complementarity.........:   0.0000000000000000e+00    0.0000000000000000e+00
Overall NLP error.......:   2.1692334595257989e-09    2.1692334595257989e-09


Number of objective function evaluations             = 10
Number of objective gradient evaluations             = 10
Number of equality constraint evaluations            = 12
Number of inequality constraint evaluations          = 0
Number of equality constraint Jacobian evaluations   = 10
Number of inequality constraint Jacobian evaluations = 0
Number of Lagrangian Hessian evaluations             = 9
Total seconds in IPOPT                               = 0.008

EXIT: Optimal Solution Found.
 
Ipopt 3.14.11: Optimal Solution Found
